21
aspirin | CC(=O)Oc1ccccc1C(=O)O | MMFF94 energy = 18.910 kcal/mol
C     -2.651771    -2.203933    -0.073260
C     -1.824011    -0.997444     0.254454
O     -1.908446    -0.362660     1.298016
O     -0.985814    -0.721619    -0.820165
C     -0.111566     0.338073    -0.561204
C     -0.463975     1.586767    -1.083630
C      0.377948     2.679439    -0.886158
C      1.570628     2.521171    -0.181112
C      1.929130     1.266803     0.323641
C      1.093256     0.155387     0.132887
C      1.481723    -1.186546     0.641361
O      0.888753    -2.236105     0.472904
O      2.625822    -1.158032     1.352048
H     -3.304536    -1.985318    -0.921840
H     -3.271362    -2.462705     0.790113
H     -2.000046    -3.052399    -0.296585
H     -1.392928     1.708830    -1.633532
H      0.104094     3.655279    -1.279943
H      2.226280     3.374856    -0.024771
H      2.868423     1.169058     0.863361
H      2.748396    -2.088899     1.633415
