19
chromone_amine | O=C1C=C(Oc2ccccc12)N | MMFF94 energy = 13.491 kcal/mol
O     -0.895322     1.860488     2.039945
C     -0.866369     1.040104     1.132003
C     -2.105547     0.465026     0.586296
C     -2.048119    -0.442363    -0.398284
O     -0.857752    -0.893397    -0.947764
C      0.325177    -0.376564    -0.483703
C      1.500620    -0.842241    -1.073193
C      2.736382    -0.354891    -0.641017
C      2.797669     0.596553     0.379438
C      1.622619     1.063284     0.969975
C      0.389345     0.571846     0.532279
N     -3.169816    -1.019673    -0.944317
H     -3.034368     0.818650     1.012276
H      1.456146    -1.581649    -1.868498
H      3.653113    -0.716723    -1.101023
H      3.760712     0.975137     0.714154
H      1.667800     1.804839     1.764576
H     -2.960677    -1.927507    -1.352229
H     -3.971612    -1.040921    -0.320913
