12
benzene | c1ccccc1 | MMFF94 energy = 16.227 kcal/mol
C      0.803511    -1.140105    -0.008249
C      1.388855     0.125800    -0.028124
C      0.585344     1.265905    -0.019869
C     -0.803513     1.140105     0.008256
C     -1.388858    -0.125801     0.028128
C     -0.585345    -1.265907     0.019876
H      1.429544    -2.028375    -0.014690
H      2.470934     0.223815    -0.050041
H      1.041396     2.252190    -0.035357
H     -1.429537     2.028381     0.014673
H     -2.470937    -0.223814     0.050044
H     -1.041395    -2.252194     0.035352
